mixintcount/benchmarks/random_v2l/6_6_50.smt2
(set-logic QF_LIA)
(set-info :ran/ran2.smt2)
(set-info :smt-lib-version 2.0)
(declare-fun x1 () Int)
(declare-fun x2 () Int)
(declare-fun x3 () Int)
(declare-fun x4 () Int)
(declare-fun x5 () Int)
(declare-fun x6 () Int)
(assert (<= (+ (* 10 x1) (* (- 8) x2) (* 1 x3) (* 7 x4) (* 5 x5) (* 5 x6) ) 36))
(assert (<= (+ (* 3 x1) (* (- 4) x2) (* 10 x3) (* 5 x4) (* 7 x5) (* (- 5) x6) ) (- 42)))
(assert (<= (+ (* (- 2) x1) (* (- 6) x2) (* 4 x3) (* 0 x4) (* (- 7) x5) (* (- 3) x6) ) (- 35)))
(assert (<= (+ (* (- 8) x1) (* (- 5) x2) (* (- 10) x3) (* 4 x4) (* 8 x5) (* 2 x6) ) 24))
(assert (<= (+ (* 8 x1) (* (- 10) x2) (* 6 x3) (* 7 x4) (* (- 8) x5) (* (- 4) x6) ) 18))
(assert (<= (+ (* 5 x1) (* 9 x2) (* 4 x3) (* (- 2) x4) (* (- 5) x5) (* 1 x6) ) (- 16)))
(assert (<= (+ (* (- 9) x1) (* 4 x2) (* (- 9) x3) (* (- 3) x4) (* 8 x5) (* 3 x6) ) 23))
(assert (<= (+ (* (- 10) x1) (* 10 x2) (* (- 3) x3) (* (- 9) x4) (* (- 8) x5) (* (- 2) x6) ) (- 33)))
(assert (<= (+ (* 10 x1) (* 8 x2) (* 6 x3) (* 5 x4) (* 8 x5) (* 1 x6) ) 44))
(assert (<= (+ (* (- 10) x1) (* 6 x2) (* (- 9) x3) (* 3 x4) (* 4 x5) (* 5 x6) ) (- 37)))
(assert (<= (+ (* 7 x1) (* (- 7) x2) (* 9 x3) (* 6 x4) (* 7 x5) (* 10 x6) ) 18))
(assert (<= (+ (* 4 x1) (* 2 x2) (* 8 x3) (* 3 x4) (* (- 1) x5) (* (- 8) x6) ) (- 33)))
(assert (<= (+ (* 1 x1) (* 0 x2) (* 0 x3) (* 0 x4) (* 0 x5) (* 0 x6) ) 50))
(assert (<= (+ (* (- 1) x1) (* 0 x2) (* 0 x3) (* 0 x4) (* 0 x5) (* 0 x6) ) 50))
(assert (<= (+ (* 0 x1) (* 1 x2) (* 0 x3) (* 0 x4) (* 0 x5) (* 0 x6) ) 50))
(assert (<= (+ (* 0 x1) (* (- 1) x2) (* 0 x3) (* 0 x4) (* 0 x5) (* 0 x6) ) 50))
(assert (<= (+ (* 0 x1) (* 0 x2) (* 1 x3) (* 0 x4) (* 0 x5) (* 0 x6) ) 50))
(assert (<= (+ (* 0 x1) (* 0 x2) (* (- 1) x3) (* 0 x4) (* 0 x5) (* 0 x6) ) 50))
(assert (<= (+ (* 0 x1) (* 0 x2) (* 0 x3) (* 1 x4) (* 0 x5) (* 0 x6) ) 50))
(assert (<= (+ (* 0 x1) (* 0 x2) (* 0 x3) (* (- 1) x4) (* 0 x5) (* 0 x6) ) 50))
(assert (<= (+ (* 0 x1) (* 0 x2) (* 0 x3) (* 0 x4) (* 1 x5) (* 0 x6) ) 50))
(assert (<= (+ (* 0 x1) (* 0 x2) (* 0 x3) (* 0 x4) (* (- 1) x5) (* 0 x6) ) 50))
(assert (<= (+ (* 0 x1) (* 0 x2) (* 0 x3) (* 0 x4) (* 0 x5) (* 1 x6) ) 50))
(assert (<= (+ (* 0 x1) (* 0 x2) (* 0 x3) (* 0 x4) (* 0 x5) (* (- 1) x6) ) 50))
