mixintcount/benchmarks/random_v2l/6_6_50.in
24 8
#	x1	x2	x3	x4	x5	x6;		0 = Real; 1 = Integer
	1	1	1	1	1	1
1	10	-8	1	7	5	5	36
1	3	-4	10	5	7	-5	-42
1	-2	-6	4	0	-7	-3	-35
1	-8	-5	-10	4	8	2	24
1	8	-10	6	7	-8	-4	18
1	5	9	4	-2	-5	1	-16
1	-9	4	-9	-3	8	3	23
1	-10	10	-3	-9	-8	-2	-33
1	10	8	6	5	8	1	44
1	-10	6	-9	3	4	5	-37
1	7	-7	9	6	7	10	18
1	4	2	8	3	-1	-8	-33
1	1	0	0	0	0	0	50
1	-1	0	0	0	0	0	50
1	0	1	0	0	0	0	50
1	0	-1	0	0	0	0	50
1	0	0	1	0	0	0	50
1	0	0	-1	0	0	0	50
1	0	0	0	1	0	0	50
1	0	0	0	-1	0	0	50
1	0	0	0	0	1	0	50
1	0	0	0	0	-1	0	50
1	0	0	0	0	0	1	50
1	0	0	0	0	0	-1	50
